% File represents an instance of a Composite Structure problem to be solved by a CP framework
% Created on 2025-03-26 10:41:15.583
T = 54;
n = 9;
m = 12;
edges = [(2, 1),
(5, 4),
(8, 7),
(3, 2),
(6, 5),
(9, 8),
(1, 4),
(7, 4),
(2, 5),
(8, 5),
(3, 6),
(9, 6)];
counts = [|14, 12, 14, 4,
|14, 14, 14, 4,
|16, 14, 16, 4,
|12, 12, 12, 2,
|14, 12, 14, 2,
|16, 14, 16, 2,
|12, 16, 12, 4,
|14, 16, 14, 4,
|16, 18, 16, 4|];
